c map4.map
p cnf 150 291
-3 -4 0
-3 -5 0
-4 -5 0
-1 -2 0
-2 -5 0
-1 -4 0
-5 1 0
-4 2 0
-33 -34 0
-33 -35 0
-34 -35 0
-31 -32 0
-32 -35 0
-31 -34 0
-35 31 0
-34 32 0
-63 -64 0
-63 -65 0
-64 -65 0
-61 -62 0
-62 -65 0
-61 -64 0
-65 61 0
-64 62 0
-93 -94 0
-93 -95 0
-94 -95 0
-91 -92 0
-92 -95 0
-91 -94 0
-95 91 0
-94 92 0
-123 -124 0
-123 -125 0
-124 -125 0
-121 -122 0
-122 -125 0
-121 -124 0
-125 121 0
-124 122 0
-9 -10 0
-9 -11 0
-10 -11 0
-7 -8 0
-8 -11 0
-7 -10 0
-11 7 0
-10 8 0
-39 -40 0
-39 -41 0
-40 -41 0
-37 -38 0
-38 -41 0
-37 -40 0
-41 37 0
-40 38 0
-69 -70 0
-69 -71 0
-70 -71 0
-67 -68 0
-68 -71 0
-67 -70 0
-71 67 0
-70 68 0
-99 -100 0
-99 -101 0
-100 -101 0
-97 -98 0
-98 -101 0
-97 -100 0
-101 97 0
-100 98 0
-129 -130 0
-129 -131 0
-130 -131 0
-127 -128 0
-128 -131 0
-127 -130 0
-131 127 0
-130 128 0
-15 -16 0
-15 -17 0
-16 -17 0
-13 -14 0
-14 -17 0
-13 -16 0
-17 13 0
-16 14 0
-45 -46 0
-45 -47 0
-46 -47 0
-43 -44 0
-44 -47 0
-43 -46 0
-47 43 0
-46 44 0
-75 -76 0
-75 -77 0
-76 -77 0
-73 -74 0
-74 -77 0
-73 -76 0
-77 73 0
-76 74 0
-105 -106 0
-105 -107 0
-106 -107 0
-103 -104 0
-104 -107 0
-103 -106 0
-107 103 0
-106 104 0
-135 -136 0
-135 -137 0
-136 -137 0
-133 -134 0
-134 -137 0
-133 -136 0
-137 133 0
-136 134 0
-21 -22 0
-21 -23 0
-22 -23 0
-19 -20 0
-20 -23 0
-19 -22 0
-23 19 0
-22 20 0
-51 -52 0
-51 -53 0
-52 -53 0
-49 -50 0
-50 -53 0
-49 -52 0
-53 49 0
-52 50 0
-81 -82 0
-81 -83 0
-82 -83 0
-79 -80 0
-80 -83 0
-79 -82 0
-83 79 0
-82 80 0
-111 -112 0
-111 -113 0
-112 -113 0
-109 -110 0
-110 -113 0
-109 -112 0
-113 109 0
-112 110 0
-141 -142 0
-141 -143 0
-142 -143 0
-139 -140 0
-140 -143 0
-139 -142 0
-143 139 0
-142 140 0
-27 -28 0
-27 -29 0
-28 -29 0
-25 -26 0
-26 -29 0
-25 -28 0
-29 25 0
-28 26 0
-57 -58 0
-57 -59 0
-58 -59 0
-55 -56 0
-56 -59 0
-55 -58 0
-59 55 0
-58 56 0
-87 -88 0
-87 -89 0
-88 -89 0
-85 -86 0
-86 -89 0
-85 -88 0
-89 85 0
-88 86 0
-117 -118 0
-117 -119 0
-118 -119 0
-115 -116 0
-116 -119 0
-115 -118 0
-119 115 0
-118 116 0
-147 -148 0
-147 -149 0
-148 -149 0
-145 -146 0
-146 -149 0
-145 -148 0
-149 145 0
-148 146 0
-39 0
-40 0
-41 0
-40 0
-40 0
-41 0
-39 0
37 0
-38 0
-3 0
-33 0
-63 0
-9 0
-69 0
-15 0
-45 0
-75 0
-4 0
-34 0
-64 0
-10 0
-70 0
-16 0
-46 0
-76 0
-5 -35 -65 0
-5 -35 -11 0
-5 -35 -71 0
-5 -35 -17 0
-5 -35 -47 0
-5 -35 -77 0
-5 -65 -11 0
-5 -65 -71 0
-5 -65 -17 0
-5 -65 -47 0
-5 -65 -77 0
-5 -11 -71 0
-5 -11 -17 0
-5 -11 -47 0
-5 -11 -77 0
-5 -71 -17 0
-5 -71 -47 0
-5 -71 -77 0
-5 -17 -47 0
-5 -17 -77 0
-5 -47 -77 0
-35 -65 -11 0
-35 -65 -71 0
-35 -65 -17 0
-35 -65 -47 0
-35 -65 -77 0
-35 -11 -71 0
-35 -11 -17 0
-35 -11 -47 0
-35 -11 -77 0
-35 -71 -17 0
-35 -71 -47 0
-35 -71 -77 0
-35 -17 -47 0
-35 -17 -77 0
-35 -47 -77 0
-65 -11 -71 0
-65 -11 -17 0
-65 -11 -47 0
-65 -11 -77 0
-65 -71 -17 0
-65 -71 -47 0
-65 -71 -77 0
-65 -17 -47 0
-65 -17 -77 0
-65 -47 -77 0
-11 -71 -17 0
-11 -71 -47 0
-11 -71 -77 0
-11 -17 -47 0
-11 -17 -77 0
-11 -47 -77 0
-71 -17 -47 0
-71 -17 -77 0
-71 -47 -77 0
-17 -47 -77 0
35 65 11 71 17 47 77 0
5 65 11 71 17 47 77 0
5 35 11 71 17 47 77 0
5 35 65 71 17 47 77 0
5 35 65 11 17 47 77 0
5 35 65 11 71 47 77 0
5 35 65 11 71 17 77 0
5 35 65 11 71 17 47 0
1 0
-2 0
31 0
-32 0
61 0
-62 0
7 0
-8 0
67 0
-68 0
13 0
-14 0
43 0
-44 0
73 0
-74 0
-76 0
-77 0
-75 0
-39 0
-69 0
-99 0
-45 0
-105 0
-51 0
-81 0
-111 0
-40 -70 0
-40 -100 0
-40 -46 0
-40 -106 0
-40 -52 0
-40 -82 0
-40 -112 0
-70 -100 0
-70 -46 0
-70 -106 0
-70 -52 0
-70 -82 0
-70 -112 0
-100 -46 0
-100 -106 0
-100 -52 0
-100 -82 0
-100 -112 0
-46 -106 0
-46 -52 0
-46 -82 0
-46 -112 0
-106 -52 0
-106 -82 0
-106 -112 0
-52 -82 0
-52 -112 0
-82 -112 0
40 70 100 46 106 52 82 112 0
-41 0
-71 0
-101 0
-47 0
-107 0
-53 0
-83 0
-113 0
97 0
-98 0
103 0
-104 0
49 0
-50 0
79 0
-80 0
109 0
-110 0
-112 0
-113 0
-111 0
-75 0
-105 0
-135 0
-81 0
-141 0
-87 0
-117 0
-147 0
-76 -106 0
-76 -136 0
-76 -82 0
-76 -142 0
-76 -88 0
-76 -118 0
-76 -148 0
-106 -136 0
-106 -82 0
-106 -142 0
-106 -88 0
-106 -118 0
-106 -148 0
-136 -82 0
-136 -142 0
-136 -88 0
-136 -118 0
-136 -148 0
-82 -142 0
-82 -88 0
-82 -118 0
-82 -148 0
-142 -88 0
-142 -118 0
-142 -148 0
-88 -118 0
-88 -148 0
-118 -148 0
76 106 136 82 142 88 118 148 0
-77 0
-107 0
-137 0
-83 0
-143 0
-89 0
-119 0
-149 0
133 0
-134 0
139 0
-140 0
85 0
-86 0
115 0
-116 0
145 0
-146 0
-148 0
-149 0
-147 0
-111 0
-141 0
-117 0
-112 0
-142 0
-118 0
-113 0
-143 0
-119 0
-118 0
-119 0
-117 0
-81 0
-111 0
-141 0
-87 0
-147 0
-82 0
-112 0
-142 0
-88 0
-148 0
-83 0
-113 0
-143 0
-89 0
-149 0
-88 0
-89 0
-87 0
-51 -81 0
-51 -111 0
-51 -57 0
-51 -117 0
-81 -111 0
-81 -57 0
-81 -117 0
-111 -57 0
-111 -117 0
-57 -117 0
51 81 111 57 117 0
-52 0
-82 0
-112 0
-58 0
-118 0
-53 0
-83 0
-113 0
-59 0
-119 0
55 0
-56 0
-58 0
-59 0
-57 0
